c b=9,c=27
p cnf 23 908
1 3 4 5 6 8 9 -18 0
1 2 4 5 6 7 9 -19 0
3 5 6 8 9 -21 0
4 6 7 9 -22 0
1 3 4 5 6 8 -9 18 0
2 3 5 7 8 -9 19 0
5 7 -9 21 0
5 7 8 -9 22 0
2 3 4 5 7 8 -17 0
2 3 5 6 7 8 -20 0
5 7 8 -23 0
1 2 4 6 7 -8 9 18 0
4 6 -8 9 20 0
9 -23 0
1 2 4 6 7 -8 -9 -18 0
2 3 5 6 7 -9 -20 0
-8 -9 23 0
2 3 4 5 7 -8 17 0
1 2 4 5 6 7 -8 -19 0
4 6 7 -8 21 0
4 6 7 -8 -22 0
1 2 3 4 6 7 -16 0
1 3 4 5 6 -7 9 -18 0
1 3 5 -7 8 9 19 0
3 5 6 -7 9 20 0
1 3 4 5 6 -7 -9 18 0
1 3 4 5 -7 8 -9 -19 0
2 3 5 6 8 -9 -20 0
-7 -9 23 0
1 3 5 6 -7 8 17 0
3 5 6 -7 8 -21 0
-7 8 -22 0
1 2 4 5 6 -8 9 -19 0
3 5 6 -7 9 -21 0
-7 -8 9 22 0
1 4 5 -7 -8 -9 19 0
4 5 6 -8 -9 21 0
4 5 6 -7 -9 -22 0
1 3 5 6 -7 -8 -17 0
4 5 6 -7 -8 20 0
1 2 3 4 6 -7 16 0
1 2 3 5 6 -15 0
2 4 -6 7 8 9 18 0
2 4 5 -6 7 9 -20 0
-6 7 9 -21 0
8 9 -22 0
2 4 -6 7 8 -9 -18 0
5 -6 8 -9 20 0
2 3 4 5 -6 8 -17 0
2 4 5 -6 7 8 19 0
2 3 4 -6 7 -8 9 -18 0
1 2 4 5 7 -8 9 -19 0
-6 -8 9 22 0
2 3 4 -6 7 -8 -9 18 0
2 3 4 5 -6 7 -9 19 0
7 -8 -9 -22 0
2 3 4 5 -6 -8 17 0
2 3 4 5 -6 7 -8 -20 0
2 4 5 -6 7 16 0
1 3 4 5 -7 8 9 -18 0
3 4 5 -6 -7 9 19 0
2 4 5 -6 8 9 -20 0
-6 -7 8 9 21 0
1 3 4 5 -7 8 -9 18 0
3 -6 -7 -9 -21 0
3 4 -6 -7 -8 9 18 0
3 4 5 -7 -8 9 20 0
3 4 -6 -7 -8 -9 -18 0
2 3 4 5 -6 -8 -9 -20 0
3 4 5 -6 -7 -8 19 0
3 4 5 -6 -7 -8 -21 0
-6 -7 -8 22 0
2 4 5 -6 -7 -16 0
1 2 3 5 -6 15 0
1 2 4 5 -14 0
1 3 4 -5 6 7 9 18 0
-5 6 8 9 -20 0
4 7 8 9 -21 0
1 3 4 -5 6 7 -9 -18 0
-5 6 7 8 -9 20 0
6 7 -9 21 0
6 7 8 -9 22 0
1 3 -5 6 7 8 17 0
1 3 4 -5 7 8 -19 0
6 7 8 -23 0
-5 6 -8 -9 -20 0
1 3 -5 6 7 -8 -17 0
4 -5 6 7 -8 19 0
1 2 3 4 -5 7 -16 0
1 3 4 6 -7 8 9 -18 0
1 2 3 4 -5 6 -7 9 -19 0
-5 -7 8 9 21 0
1 3 4 6 -7 8 -9 18 0
2 4 -5 -7 8 -9 19 0
3 -5 -7 -9 -21 0
1 2 3 -5 6 -7 8 -17 0
2 4 -5 6 -7 8 -20 0
1 2 3 4 -5 6 -8 9 18 0
1 2 3 4 -5 6 -8 -9 -18 0
2 4 -5 6 -7 -9 -20 0
1 2 3 -5 6 -7 -8 17 0
1 2 3 4 -5 -7 -8 -19 0
-5 6 -7 -8 -21 0
-5 -7 -8 22 0
1 2 3 4 -5 -7 16 0
1 3 4 -5 6 15 0
2 3 4 -5 -6 8 9 18 0
-5 -6 7 8 9 20 0
2 3 4 -5 -6 8 -9 -18 0
-5 -6 7 8 -9 -20 0
-5 -6 -9 23 0
2 3 4 -6 7 8 -17 0
-5 -6 7 8 -21 0
-5 -6 8 -22 0
4 -5 7 -8 9 19 0
2 -5 -6 -8 9 -20 0
1 2 4 -5 -6 7 -9 -19 0
-5 -6 -8 -9 20 0
7 -8 -9 21 0
-5 -6 7 -9 -22 0
2 3 4 -6 7 -8 17 0
2 3 4 -5 -6 -7 9 18 0
2 3 4 -5 -6 -7 9 -20 0
-5 -6 -7 9 21 0
2 3 4 -5 -6 -7 -9 -18 0
3 -5 -6 -7 -9 20 0
2 3 -5 -6 -7 8 17 0
2 3 4 -5 -6 -7 8 19 0
2 3 -5 -6 -7 -8 -17 0
1 3 4 -5 -6 -15 0
1 2 4 -5 14 0
1 3 4 -13 0
2 3 -4 6 7 9 -18 0
2 -4 5 7 8 9 -19 0
5 6 7 9 -22 0
2 3 -4 6 7 -9 18 0
2 3 -4 5 6 8 -9 19 0
2 3 -4 5 6 8 17 0
-4 5 6 7 -8 9 19 0
5 6 -8 9 20 0
2 3 -4 5 6 -8 -9 -19 0
2 3 -4 5 6 -9 -20 0
2 3 -4 5 6 -8 -17 0
5 6 7 -8 21 0
5 6 7 -8 -22 0
2 -4 5 6 7 16 0
3 -4 5 6 -7 9 18 0
3 -4 5 6 -7 -9 -18 0
3 -4 5 6 -7 8 19 0
-4 5 6 -7 -8 -19 0
-4 -7 -8 22 0
2 -4 5 6 -7 -16 0
3 -4 5 6 -7 -21 0
1 2 3 -4 6 -15 0
1 2 3 -4 5 -6 8 9 -18 0
1 3 -4 5 -6 7 9 -19 0
1 2 3 -4 5 -6 8 -9 18 0
2 3 5 -6 7 8 -17 0
-4 5 -6 7 8 20 0
1 3 -4 -6 7 -8 9 18 0
2 -4 -6 -8 9 -20 0
1 3 -4 -6 7 -8 -9 -18 0
-4 5 -6 7 -9 20 0
2 3 5 -6 7 -8 17 0
1 3 -4 5 -6 7 -8 -19 0
1 2 -4 5 -6 7 -16 0
1 2 3 -4 -6 -7 9 -18 0
-4 5 -6 -7 9 -20 0
-4 -6 -7 9 21 0
1 2 3 -4 -6 -7 -9 18 0
1 2 3 5 -6 -7 8 -9 -19 0
3 -4 -7 -9 -21 0
1 2 3 -4 5 -7 8 17 0
1 3 -4 5 -6 -8 9 -19 0
1 2 3 5 -6 -7 -8 -9 19 0
1 2 3 -4 5 -7 -8 -17 0
2 -4 5 -6 -7 -8 -20 0
1 2 -4 5 -6 -7 16 0
1 2 3 -4 -6 15 0
2 3 -4 5 14 0
1 -4 -5 6 7 8 9 19 0
-4 -5 6 7 9 -20 0
-4 -5 7 9 -21 0
1 2 -4 -5 6 8 -9 -19 0
-4 -5 6 8 -9 20 0
1 2 3 -4 -5 7 8 17 0
-4 -5 6 7 -8 9 -19 0
-4 -5 -8 9 22 0
1 3 -4 -5 7 -8 -9 19 0
1 2 3 -4 -5 7 -8 -17 0
-4 -5 6 7 -8 -20 0
1 2 3 -5 6 7 -16 0
3 -4 6 -7 8 9 18 0
3 -4 6 -7 8 -9 -18 0
1 -4 -5 6 -7 8 -19 0
1 3 -4 -5 6 -8 9 -18 0
1 3 -4 -5 -7 -8 9 19 0
6 -7 -8 9 20 0
1 3 -4 -5 6 -8 -9 18 0
1 3 -4 -5 6 -7 -9 -19 0
-4 6 -8 -9 -20 0
-4 6 -7 -8 -21 0
1 2 3 -5 6 -7 16 0
1 2 3 -4 -5 -6 7 9 18 0
-4 -5 -6 8 9 20 0
1 2 3 -4 -5 -6 7 -9 -18 0
1 2 3 -4 -5 -6 8 17 0
1 2 3 -5 -6 7 8 -19 0
1 2 3 -4 -5 -6 -8 -17 0
2 -4 -5 -6 7 -8 19 0
1 2 -4 -5 -6 7 16 0
1 2 3 -4 -5 -6 8 9 -19 0
1 2 3 -5 -6 -7 8 -9 19 0
3 -4 -5 -6 -7 8 20 0
2 -4 -5 -6 -8 9 19 0
1 3 -5 -7 -8 -9 -19 0
1 2 -4 -5 -6 -7 -16 0
2 3 -4 -5 -14 0
1 3 -4 13 0
2 3 -12 0
1 -3 4 6 7 8 9 -18 0
4 5 6 8 9 -21 0
1 -3 4 6 7 8 -9 18 0
-3 4 5 6 8 -9 19 0
1 2 -3 5 6 8 -17 0
4 5 6 7 8 -20 0
1 2 -3 4 5 7 -8 9 18 0
1 2 -3 4 5 7 -8 -9 -18 0
4 5 6 7 -9 -20 0
1 2 -3 5 6 -8 17 0
1 2 -3 4 5 7 -8 -19 0
1 2 -3 4 5 7 16 0
-3 4 5 6 -7 8 9 18 0
4 5 6 -7 9 20 0
-3 4 5 6 -7 8 -9 -18 0
4 5 6 8 -9 -20 0
-3 4 5 6 -7 8 19 0
4 5 6 -7 8 -21 0
1 2 -3 4 5 -7 -8 9 -18 0
1 2 -3 4 5 -8 9 -19 0
4 5 6 -7 9 -21 0
1 2 -3 4 5 -7 -8 -9 18 0
-3 4 5 6 -7 -9 19 0
1 2 -3 4 5 -7 -16 0
1 -3 4 5 6 15 0
2 -3 4 5 -6 7 9 18 0
2 -3 4 5 -6 9 -20 0
2 -3 4 5 -6 7 -9 -18 0
-3 5 -6 7 -9 20 0
2 -3 4 5 -6 8 17 0
2 -3 4 5 -6 -8 -17 0
-3 4 5 -6 -7 9 -18 0
2 -3 4 5 -6 8 9 19 0
-3 -6 -7 9 21 0
-3 4 5 -6 -7 -9 18 0
4 5 -6 -7 8 -9 -19 0
4 -6 -7 -9 -21 0
2 -3 5 -6 -7 -8 -20 0
1 -3 4 5 -6 -15 0
1 2 -3 5 -14 0
2 -3 4 -5 6 8 9 -18 0
-3 4 -5 6 7 9 19 0
-3 7 8 9 -21 0
2 -3 4 -5 6 8 -9 18 0
1 2 -3 -5 7 8 -9 -19 0
1 2 -3 4 -5 7 8 -17 0
1 2 -3 4 -5 7 -8 17 0
1 2 4 -5 6 7 -16 0
2 -3 4 -5 6 -7 9 -18 0
2 -3 -5 -7 8 9 -19 0
2 -3 4 -5 6 -7 -9 18 0
4 -5 -7 -9 -21 0
2 -3 -5 6 -7 8 17 0
-3 4 -5 6 -8 9 19 0
2 4 -5 -7 -8 -9 -19 0
2 -3 -5 6 -7 -8 -17 0
1 2 4 -5 6 -7 16 0
1 -3 4 -5 6 -15 0
-3 -5 -6 8 9 20 0
1 2 -3 -5 -6 8 -17 0
4 -5 -6 7 8 -19 0
1 2 4 -5 -6 7 -8 9 -18 0
2 -3 -6 -8 9 -20 0
1 2 4 -5 -6 7 -8 -9 18 0
1 2 -3 -5 -6 -8 17 0
1 2 -3 4 -6 7 16 0
2 -3 4 -5 -7 8 9 -18 0
1 -3 4 -5 -6 -7 9 -19 0
2 -3 4 -5 -7 8 -9 18 0
-3 4 -5 -6 -7 8 20 0
1 2 4 -5 -6 -7 -8 9 18 0
1 2 4 -5 -6 -7 -8 -9 -18 0
4 -5 -6 -7 -9 20 0
1 4 -5 -6 -7 -8 -19 0
1 2 -3 4 -6 -7 -16 0
1 -3 4 -5 -6 15 0
1 2 -3 -5 14 0
1 2 -3 4 13 0
-3 -4 5 6 7 8 9 18 0
-3 -4 6 8 9 -20 0
-3 -4 5 6 7 8 -9 -18 0
-3 -4 5 7 8 -9 20 0
-3 -4 5 6 7 8 -19 0
1 -3 -4 5 7 -8 9 -18 0
-3 -4 5 7 -8 9 19 0
1 -3 -4 5 7 -8 -9 18 0
1 -3 -4 5 6 7 -9 -19 0
1 2 -3 -4 6 7 16 0
-3 -4 5 6 -7 8 9 -18 0
-3 -4 5 6 -7 9 -19 0
-3 -4 -7 8 9 21 0
-3 -4 5 6 -7 8 -9 18 0
-3 -4 5 -7 8 -9 19 0
-4 5 -7 -9 -21 0
-3 -4 5 6 -7 8 -20 0
2 -3 -4 6 -7 -8 9 18 0
2 -3 -4 6 -7 -8 -9 -18 0
-4 5 6 -7 -9 -20 0
1 2 -3 -4 6 -7 -16 0
1 2 -4 5 6 -15 0
-3 -4 5 -6 7 9 -18 0
-3 -4 5 -6 7 -9 18 0
-3 -4 5 -6 8 -9 19 0
2 -3 5 -6 7 8 17 0
1 -3 5 7 -8 -9 -19 0
2 -3 5 -6 7 -8 -17 0
2 -3 -4 -6 -7 8 9 18 0
-3 5 -6 -7 9 -20 0
2 -3 -4 -6 -7 8 -9 -18 0
2 -3 -4 5 -7 8 -17 0
-3 -4 5 -6 -7 8 19 0
2 -3 -4 5 -6 -8 9 -18 0
-3 5 -7 -8 9 -19 0
2 -3 -4 5 -6 -8 -9 18 0
2 -3 -4 5 -6 -7 -9 19 0
2 -3 -4 5 -7 -8 17 0
1 2 -4 5 -6 15 0
1 2 -4 -5 6 7 9 -18 0
1 -3 -4 -5 7 8 9 19 0
1 2 -4 -5 6 7 -9 18 0
1 2 -3 -4 -5 8 -9 -19 0
1 2 -3 -4 -5 6 8 17 0
1 2 -3 -4 -5 6 -8 -9 19 0
1 2 -3 -4 -5 6 -8 -17 0
1 2 -3 -4 -5 7 16 0
1 -3 -4 -5 6 -7 9 18 0
1 -3 -4 -5 6 -7 -9 -18 0
-4 6 -7 -9 -21 0
1 -3 -4 -5 -7 8 -19 0
-3 -4 -5 6 -7 -8 19 0
1 2 -3 -4 -5 -7 -16 0
1 -3 -4 -5 6 15 0
1 2 -3 -4 -5 7 8 9 -18 0
2 -3 -4 -5 -6 7 9 19 0
1 2 -3 -4 -5 7 8 -9 18 0
-3 -4 -5 -6 8 -9 -20 0
1 2 -4 -5 -6 7 -8 9 18 0
1 2 -4 -5 -6 7 -8 -9 -18 0
1 -3 -4 -5 -7 8 9 18 0
1 -3 -4 -5 -7 8 -9 -18 0
-3 -4 -5 -6 -7 8 21 0
2 -4 -6 -7 -8 9 -18 0
2 -4 -6 -7 -8 -9 18 0
-3 -4 -5 -6 -7 -9 -19 0
-4 -7 -8 -9 -21 0
1 -3 -4 -5 -6 -15 0
1 2 -3 -4 -13 0
2 -3 12 0
1 2 -11 0
3 4 5 6 7 9 -19 0
1 -2 4 5 7 8 -9 19 0
-2 3 5 6 7 8 -17 0
-2 3 4 5 7 -8 9 18 0
-2 3 4 5 7 -8 -9 -18 0
-2 3 5 6 7 -8 17 0
-2 3 4 5 7 -8 -19 0
1 -2 4 5 7 -16 0
1 -2 3 4 6 -7 9 -18 0
1 -2 3 4 6 -7 -9 18 0
1 -2 3 4 6 -7 8 17 0
3 4 5 6 -8 9 -19 0
1 -2 3 4 6 -7 -8 -17 0
1 -2 4 5 -7 16 0
1 -2 3 4 6 15 0
-2 3 4 5 -6 7 9 18 0
3 4 5 -6 7 9 -20 0
-2 3 4 5 -6 7 -9 -18 0
-2 5 -6 7 -9 20 0
-2 3 4 5 -6 7 8 17 0
3 4 5 -6 7 8 19 0
-2 3 4 5 -6 7 -8 -17 0
1 -2 3 4 -7 8 9 -18 0
3 4 5 -6 8 9 -20 0
1 -2 3 4 -7 8 -9 18 0
1 -2 3 4 -6 -7 8 -17 0
-2 3 4 5 -6 -8 9 18 0
-2 3 4 5 -6 -8 -9 -18 0
-2 3 5 -6 -7 -8 -9 -20 0
1 -2 3 4 -6 -7 -8 17 0
1 -2 3 4 -6 -15 0
-2 3 4 5 14 0
1 -2 3 4 -5 6 8 17 0
1 -2 3 4 -5 6 -8 -17 0
1 -2 3 4 -5 7 16 0
1 -2 3 4 -5 8 9 -19 0
3 4 -5 -7 8 -9 19 0
3 4 -5 6 -7 8 -20 0
-2 4 -5 6 -8 9 19 0
3 4 -5 6 -7 -9 -20 0
1 -2 3 4 -5 -7 -16 0
1 -2 3 4 -5 7 8 9 18 0
-2 -5 -6 8 9 20 0
1 -2 3 4 -5 7 8 -9 -18 0
-2 3 4 -5 -6 8 -17 0
3 4 -5 -6 7 -8 9 -18 0
3 -5 -6 -8 9 -20 0
3 4 -5 -6 7 -8 -9 18 0
3 4 -5 -6 7 -9 -19 0
-2 3 4 -5 -6 -8 17 0
1 -2 4 -5 -6 -7 9 -19 0
-2 3 -5 -6 -7 8 20 0
-2 3 4 -5 -14 0
1 -2 4 -13 0
-2 3 -4 5 6 8 9 18 0
1 -2 -4 6 7 8 9 -20 0
-2 3 -4 5 6 8 -9 -18 0
-2 -4 5 7 8 -9 20 0
1 -2 3 -4 5 7 8 -17 0
-2 -4 5 6 7 8 -19 0
1 -2 -4 6 7 -8 9 -18 0
1 -2 -4 6 7 -8 -9 18 0
1 -2 -4 5 6 7 -9 -19 0
1 -2 3 -4 5 7 -8 17 0
1 -2 3 -4 6 7 -16 0
-2 3 -4 5 -7 8 19 0
1 -2 3 -4 6 -7 16 0
1 3 -4 5 6 -15 0
1 -2 -4 -6 7 8 9 -18 0
1 -2 -4 -6 7 8 -9 18 0
-2 -4 5 -6 8 -9 19 0
1 -2 3 -4 5 -6 8 -17 0
3 -4 -6 -8 9 -20 0
1 -2 3 -4 5 -6 -8 17 0
1 -2 3 5 -6 7 -8 -19 0
1 -2 -4 5 -6 7 16 0
-2 3 -4 5 -7 8 9 18 0
-2 3 -4 5 -7 8 -9 -18 0
1 3 -4 -6 -7 -8 9 -18 0
1 3 -4 -6 -7 -8 -9 18 0
-2 3 -4 5 -6 -7 -9 19 0
3 -4 5 -6 -7 -8 -20 0
1 -2 -4 5 -6 -7 -16 0
1 3 -4 5 -6 15 0
-2 3 -4 5 -14 0
3 -4 -5 6 7 9 -18 0
-2 -4 -5 7 8 9 19 0
3 -4 -5 6 7 -9 18 0
3 -4 -5 6 8 -9 -19 0
1 -2 -4 -5 7 -8 -9 19 0
1 -2 -4 -5 7 -16 0
1 3 -4 -5 6 -7 8 -17 0
1 -2 -4 -5 -7 -8 9 19 0
1 3 -4 -5 6 -7 -8 17 0
1 -2 -4 -5 -7 16 0
1 -2 3 -5 6 15 0
-2 3 -4 -5 -6 8 9 -18 0
-2 3 -4 -5 -6 7 9 19 0
-2 3 -4 -5 -6 8 -9 18 0
-2 3 -5 7 8 -9 -19 0
1 -2 3 -4 -6 7 8 -17 0
1 -2 3 -4 -6 7 -8 17 0
3 -4 -5 -6 7 -8 19 0
3 -4 -5 -6 -7 9 -18 0
-2 3 -5 -7 8 9 -19 0
3 -4 -5 -6 -7 -9 18 0
-2 3 -4 -6 -7 8 -9 19 0
1 3 -4 -5 -6 -7 8 17 0
3 -4 -5 -6 -8 9 19 0
1 3 -4 -5 -6 -7 -8 -17 0
1 -2 3 -5 -6 -15 0
-2 3 -4 -5 14 0
1 -2 -4 13 0
1 -2 3 12 0
-2 -3 4 5 6 7 9 -18 0
-2 -3 5 7 8 9 -19 0
-2 -3 4 5 6 7 -9 18 0
-2 -3 4 5 6 7 8 17 0
-2 -3 4 6 7 -8 9 19 0
-2 -3 4 5 6 7 -8 -17 0
-2 -3 4 6 -7 8 9 18 0
-2 -3 4 6 -7 8 -9 -18 0
-2 -3 4 6 -7 8 -17 0
-2 -3 4 5 6 -8 9 -18 0
-2 -3 4 5 6 -8 -9 18 0
-2 -3 4 6 -7 -8 17 0
1 -2 -3 5 6 15 0
-2 -3 4 5 -6 8 9 -18 0
-2 -3 4 5 -6 7 9 -19 0
-2 -3 4 5 -6 8 -9 18 0
-2 -3 4 5 -6 7 8 -17 0
-2 -3 5 -6 7 8 20 0
-2 -3 4 -6 7 -8 9 18 0
-3 4 -6 -8 9 -20 0
-2 -3 4 -6 7 -8 -9 -18 0
-2 -3 4 5 -6 7 -8 17 0
-2 4 5 -6 7 -8 -19 0
1 -2 4 5 -7 8 9 19 0
1 -2 -3 5 -6 -7 8 17 0
-3 4 5 -6 -8 9 -19 0
1 -2 -3 5 -6 -7 -8 -17 0
-3 4 5 -6 -7 -8 -20 0
1 -2 -3 5 -6 -15 0
1 -3 4 5 -14 0
-2 -3 4 -5 6 8 -9 -19 0
-2 -3 -5 6 8 -9 20 0
-2 -3 4 -5 6 8 -17 0
-2 -3 4 -5 7 -8 9 18 0
-2 -3 4 -5 7 -8 -9 -18 0
-2 -3 4 -5 6 -8 17 0
-2 -3 4 -5 7 -8 19 0
1 -2 4 -5 6 7 16 0
1 -2 -3 -5 6 -7 8 -19 0
-2 4 6 -7 -8 9 -18 0
-2 4 6 -7 -8 -9 18 0
-2 -3 4 -5 6 -7 -9 -19 0
1 -2 4 -5 6 -7 -16 0
-2 -3 4 -5 -6 7 9 18 0
-2 -3 4 -5 -6 7 -9 -18 0
1 -2 -3 -5 -6 7 8 17 0
1 -2 -3 -5 -6 7 -8 -17 0
1 -2 -3 4 -6 7 -16 0
-2 4 -6 -7 8 9 -18 0
-2 4 -6 -7 8 -9 18 0
4 -5 -6 -7 8 -9 19 0
1 -2 -3 4 -5 -7 8 -17 0
-2 4 -5 -6 -7 8 20 0
1 -2 -3 4 -5 -6 -8 9 18 0
1 -2 -3 4 -5 -6 -8 -9 -18 0
1 -2 -3 4 -5 -7 -8 17 0
1 -2 -3 4 -6 -7 16 0
1 -3 4 -5 14 0
-2 -3 -4 6 7 8 9 18 0
-2 -3 -4 6 7 8 -9 -18 0
1 -3 -4 5 6 8 -17 0
1 -2 -3 -4 7 -8 9 -18 0
1 -2 -3 -4 7 -8 -9 18 0
1 -3 -4 5 6 -8 17 0
1 -2 -3 -4 5 7 16 0
-2 -4 5 -7 8 -9 19 0
1 -2 -3 -4 5 -7 -8 9 18 0
1 -2 -3 -4 5 -7 -8 -9 -18 0
-2 -3 -4 5 -7 -8 -19 0
1 -2 -3 -4 5 -7 -16 0
1 -2 -3 -4 6 15 0
-2 -3 -4 -6 7 9 -18 0
-2 -3 -4 -6 7 -9 18 0
-2 -3 -4 5 -6 8 17 0
-3 5 -6 -8 9 -20 0
1 -2 -3 -4 5 -8 -9 -19 0
-2 -3 -4 5 -6 -9 20 0
-2 -3 -4 5 -6 -8 -17 0
-2 -3 -4 5 -6 -7 9 18 0
-2 -3 -4 5 -6 -7 -9 -18 0
-2 -4 5 -6 -7 8 19 0
1 -2 -3 -4 -6 -15 0
-2 -3 -4 5 14 0
1 -2 -3 -4 -5 6 8 9 18 0
1 -2 -3 -4 -5 6 8 -9 -18 0
1 -2 -3 -4 6 7 8 -17 0
-2 -3 -4 -5 6 7 8 19 0
-2 -3 -4 -5 7 -8 9 -19 0
-2 -3 -4 -5 6 7 -9 19 0
1 -2 -3 -4 6 7 -8 17 0
1 -3 -4 -5 6 -7 8 17 0
1 -3 -4 -5 6 -7 -8 -17 0
-2 -3 -4 -5 -6 7 9 20 0
-3 -4 -5 -6 8 -9 -19 0
-2 -3 -4 -6 7 8 17 0
-2 -3 -5 7 -8 -9 19 0
-2 -3 -4 -6 7 -8 -17 0
-2 -3 -4 -5 -6 7 -8 20 0
1 -3 -5 -6 -7 8 -17 0
-2 -3 -4 -5 -6 -8 9 -18 0
-3 -6 -7 -8 9 -20 0
-2 -3 -4 -5 -6 -8 -9 18 0
-2 -3 -4 -6 -8 -9 20 0
1 -3 -5 -6 -7 -8 17 0
-2 -3 -4 -5 -14 0
1 -2 -3 -12 0
1 -2 11 0
1 -10 0
2 3 4 5 6 8 9 -18 0
2 3 4 5 6 8 -9 18 0
-1 3 4 6 7 -8 9 18 0
-1 3 4 6 7 -8 -9 -18 0
-1 3 4 5 6 7 -8 -19 0
-1 2 4 5 6 7 -16 0
-1 2 3 4 6 -7 9 -18 0
2 3 5 -7 8 9 19 0
-1 2 3 4 6 -7 -9 18 0
2 3 4 5 -7 8 -9 -19 0
-1 2 3 4 6 -7 8 17 0
2 4 5 -7 -8 -9 19 0
-1 2 3 4 6 -7 -8 -17 0
-1 2 4 5 6 -7 16 0
-1 3 4 6 -15 0
-1 2 3 5 -6 8 -17 0
-1 3 4 5 7 -8 9 -19 0
-1 2 3 5 -6 -8 17 0
-1 2 3 5 -6 7 16 0
2 3 4 5 -7 8 9 -18 0
2 3 4 5 -7 8 -9 18 0
-1 2 3 5 -6 -7 -16 0
-1 3 4 -6 15 0
-1 2 3 5 14 0
2 3 4 -5 6 7 9 18 0
2 3 4 -5 6 7 -9 -18 0
-1 2 3 4 -5 6 8 17 0
2 3 4 -5 7 8 -19 0
-1 2 3 4 -5 6 -8 -17 0
-1 2 3 4 -5 6 7 16 0
-1 2 3 4 -5 6 8 9 -19 0
-1 4 -5 6 -8 9 19 0
2 3 -5 -7 -8 -9 -19 0
-1 2 3 4 -5 6 -7 -16 0
-1 2 3 -6 7 8 -17 0
-1 2 3 -6 7 -8 17 0
-1 2 3 -5 -6 7 -16 0
-1 2 3 4 -5 -7 8 17 0
-1 2 3 4 -5 -7 -8 -17 0
2 4 -5 -6 -7 -8 -19 0
-1 2 3 -5 -6 -7 16 0
-1 2 3 -5 -14 0
-1 2 3 4 13 0
-1 -4 5 7 8 9 -19 0
-1 2 3 -4 5 8 -9 19 0
-1 2 3 -4 5 7 16 0
-1 3 -4 5 -7 8 19 0
-1 2 3 -4 5 -7 -16 0
-1 2 3 -4 6 15 0
-1 2 3 -4 7 8 9 -18 0
2 3 -4 5 -6 7 9 -19 0
-1 2 3 -4 7 8 -9 18 0
2 3 -4 -6 7 -8 9 18 0
2 3 -4 -6 7 -8 -9 -18 0
2 3 -4 5 -6 7 -8 -19 0
-1 3 -4 5 -7 8 9 18 0
-1 3 -4 5 -7 8 -9 -18 0
2 3 -4 5 -6 -8 9 -19 0
-1 2 -4 5 -6 -7 -9 19 0
-1 2 3 -4 -6 -15 0
-1 3 -4 -5 7 8 9 19 0
-1 2 3 -4 6 7 8 17 0
2 3 -4 -5 7 -8 -9 19 0
-1 2 3 -4 6 7 -8 -17 0
-1 2 3 -4 -5 7 -16 0
2 3 -4 -5 6 -7 8 -17 0
2 -4 -5 6 -7 8 -19 0
2 3 -4 -5 6 -8 9 -18 0
2 3 -4 -5 -7 -8 9 19 0
2 3 -4 -5 6 -8 -9 18 0
2 3 -4 -5 6 -7 -9 -19 0
2 3 -4 -5 6 -7 -8 17 0
-1 2 3 -4 -5 -7 16 0
-1 3 -4 -5 -6 8 9 -18 0
-1 2 -4 -5 -6 7 9 19 0
-1 3 -4 -5 -6 8 -9 18 0
-1 3 -5 7 8 -9 -19 0
-1 2 -4 -5 -7 8 9 -19 0
-1 3 -4 -6 -7 8 -9 19 0
-1 2 3 -4 -13 0
-1 3 -12 0
-1 -3 4 5 6 7 9 -18 0
-1 -3 5 6 7 8 9 -19 0
-1 -3 4 5 6 7 -9 18 0
-1 2 -3 4 5 7 8 17 0
-1 -3 4 6 7 -8 9 19 0
2 -3 5 7 -8 -9 -19 0
-1 2 -3 4 5 7 -8 -17 0
-1 2 -3 4 6 7 -16 0
-1 -3 5 6 -7 8 -17 0
-1 -3 4 5 6 -8 9 -18 0
-1 -3 4 5 6 -8 -9 18 0
-1 -3 5 6 -7 -8 17 0
-1 2 -3 4 6 -7 16 0
-1 2 -3 5 6 -15 0
-1 2 -3 4 -6 7 9 18 0
-1 2 -3 4 -6 7 -9 -18 0
-1 -3 4 5 -6 7 -8 -19 0
-1 2 -3 5 -6 15 0
2 -3 4 5 -14 0
-1 2 4 -5 7 8 -9 -19 0
-1 -3 -5 6 7 8 -17 0
-1 -3 4 -5 7 -8 9 18 0
-1 -3 4 -5 7 -8 -9 -18 0
-1 -3 -5 6 7 -8 17 0
-1 -3 4 -5 7 -8 19 0
-1 2 -3 4 -5 7 -16 0
-1 2 4 -5 6 -7 9 -18 0
-1 2 4 -5 6 -7 -9 18 0
-1 4 -5 -7 -8 -9 -19 0
-1 2 -3 4 -5 -7 16 0
-1 -3 4 -5 6 15 0
-1 2 -3 4 -6 7 8 17 0
-1 2 -3 4 -6 7 -8 -17 0
2 -3 4 -5 -6 -7 9 -19 0
2 -3 -5 -6 -7 8 -17 0
-1 2 -3 4 -5 -6 -8 9 18 0
-1 2 -3 4 -5 -6 -8 -9 -18 0
2 -3 -5 -6 -7 -8 17 0
-1 -3 4 -5 -6 -15 0
2 -3 4 -5 14 0
-1 2 -3 4 -13 0
-1 -3 -4 6 7 8 9 18 0
-1 -3 -4 6 7 8 -9 -18 0
2 -3 -4 5 6 8 -17 0
2 -3 -4 5 7 -8 9 -18 0
2 -3 -4 5 7 -8 -9 18 0
2 -3 -4 5 6 7 -9 -19 0
2 -3 -4 5 6 -8 17 0
-1 -4 5 -7 8 -9 19 0
-1 -3 -4 6 -7 -8 9 18 0
-1 -3 -4 6 -7 -8 -9 -18 0
-1 -3 -4 6 -15 0
-1 -4 5 -6 8 -9 19 0
2 -3 -4 5 -6 7 -16 0
-1 -3 -4 -6 -7 8 9 18 0
-1 -3 -4 -6 -7 8 -9 -18 0
-1 -4 5 -6 -7 8 19 0
2 -3 -4 5 -6 -7 16 0
-1 -3 -4 -6 15 0
-1 2 -4 5 14 0
-1 2 -3 -4 -5 6 8 9 18 0
-1 2 -3 -4 -5 6 8 -9 -18 0
-1 2 -3 -4 -5 7 8 -17 0
-1 -3 -4 -5 6 7 8 19 0
-1 2 -4 6 7 -8 9 -18 0
-1 2 -4 6 7 -8 -9 18 0
-1 -3 -4 -5 6 7 -9 19 0
-1 2 -3 -4 -5 7 -8 17 0
-1 2 -3 -5 6 7 -16 0
2 -3 -4 -5 6 -7 9 18 0
2 -3 -4 -5 6 -7 -9 -18 0
2 -3 -4 -5 -7 8 -19 0
-1 2 -3 -5 6 -7 16 0
-1 2 -4 -6 7 8 9 -18 0
-1 2 -4 -6 7 8 -9 18 0
2 -3 -4 -5 -6 8 -17 0
-1 2 -3 -5 -6 7 -8 9 18 0
-1 2 -3 -5 -6 7 -8 -9 -18 0
2 -3 -4 -5 -6 -8 17 0
-1 2 -3 -5 -6 7 -8 19 0
2 -3 -4 -5 -6 7 16 0
2 -3 -4 -5 -7 8 9 18 0
2 -3 -4 -5 -7 8 -9 -18 0
2 -3 -4 -5 -6 -7 -16 0
-1 2 -4 -5 -14 0
-1 2 -3 -4 13 0
-1 -3 12 0
-1 2 11 0
-1 -2 4 6 7 8 9 -18 0
-1 -2 4 6 7 8 -9 18 0
-1 -2 4 5 6 8 -9 19 0
-1 -2 3 4 5 6 8 -17 0
-1 -2 3 4 5 6 -8 17 0
-1 -2 3 4 5 6 7 16 0
-1 -2 3 5 6 -7 8 9 18 0
-1 -2 3 5 6 -7 8 -9 -18 0
-1 -2 3 5 6 -7 8 19 0
-1 -2 4 5 6 -7 -9 19 0
-1 -2 3 4 5 6 -7 -16 0
-1 -2 3 5 -6 7 8 17 0
-1 -2 3 5 -6 7 -8 -17 0
-1 -2 3 5 -6 7 -16 0
-1 -2 3 4 5 -7 8 -17 0
-1 -2 3 4 5 -7 -8 17 0
-1 -2 3 5 -6 -7 16 0
-1 -2 4 5 14 0
-1 -2 3 4 -5 6 8 9 -18 0
-1 -2 4 -5 6 7 9 19 0
-1 -2 7 8 9 -21 0
-1 -2 3 4 -5 6 8 -9 18 0
-1 -2 3 4 -5 7 8 -17 0
-1 -2 3 4 -5 7 -8 17 0
-1 -2 3 4 -5 6 7 -16 0
-1 3 4 -5 6 -7 9 -18 0
-1 3 4 -5 6 -7 -9 18 0
-1 -2 3 -5 6 -7 8 17 0
-1 -2 3 -5 6 -7 -8 -17 0
-1 -2 3 4 -5 6 -7 16 0
-1 3 4 -6 7 8 9 18 0
-1 3 4 -6 7 8 -9 -18 0
-1 -2 4 -5 -6 7 16 0
-2 3 4 -5 -7 8 9 -18 0
-2 3 4 -5 -6 -7 9 -19 0
-2 3 4 -5 -7 8 -9 18 0
3 4 -5 -6 -7 -8 -19 0
-1 -2 4 -5 -6 -7 -16 0
-1 -2 4 -5 -14 0
-2 3 4 -13 0
-1 -2 3 6 7 8 9 -20 0
-1 -2 3 -4 5 7 -8 9 -18 0
-1 -2 -4 5 7 -8 9 19 0
-1 -2 3 -4 5 7 -8 -9 18 0
-2 3 -4 5 6 7 -9 -19 0
-1 -2 3 -4 5 7 -16 0
-1 -2 3 -4 6 -7 9 18 0
-1 -2 3 -4 6 -7 -9 -18 0
-1 -2 3 -4 6 -7 8 17 0
-1 -2 3 -4 6 -7 -8 -17 0
-1 -2 3 -4 5 -7 16 0
-1 3 -4 5 6 15 0
-1 -2 -4 5 -6 7 9 -18 0
-1 -2 -4 5 -6 7 -9 18 0
-1 -2 3 5 7 -8 -9 -19 0
-1 3 5 -6 -7 8 -17 0
-1 -2 3 -4 5 -6 -8 9 -18 0
-1 -2 -4 5 -7 -8 9 -19 0
-1 -2 3 -4 5 -6 -8 -9 18 0
-1 3 -4 5 -6 -7 -9 19 0
-1 3 5 -6 -7 -8 17 0
-1 3 -4 5 -6 -15 0
-1 -2 3 -4 -5 6 8 17 0
-1 -2 3 -4 -5 6 -8 -9 19 0
-1 -2 3 -4 -5 6 -8 -17 0
-1 -2 -4 -5 6 7 16 0
3 -4 -5 6 -7 8 -19 0
-1 -2 -4 -5 6 -7 -8 19 0
-1 -2 -4 -5 6 -7 -16 0
-1 -2 3 -5 6 -15 0
-1 3 -4 -5 -6 7 9 19 0
-1 3 -5 -6 7 8 -17 0
3 -4 -5 -6 7 -8 9 18 0
3 -4 -5 -6 7 -8 -9 -18 0
-1 3 -5 -6 7 -8 17 0
-1 -2 3 -4 -6 7 -16 0
-1 -2 3 -4 -5 -7 8 17 0
3 -5 -6 -7 -8 -9 -19 0
-1 -2 3 -4 -5 -7 -8 -17 0
-1 -2 3 -4 -6 -7 16 0
-1 -2 3 -5 -6 15 0
-2 3 -4 13 0
-1 -2 -3 5 6 7 8 17 0
-1 -2 4 5 7 -8 -9 -19 0
-1 -2 -3 5 6 7 -8 -17 0
-2 -3 4 5 7 -16 0
-1 -2 -3 6 -7 8 -17 0
-1 -2 4 5 6 -7 8 19 0
-1 -2 -3 6 -7 -8 17 0
-2 -3 4 5 -7 16 0
-1 -2 -3 4 6 15 0
-2 -3 4 5 7 8 -9 19 0
-1 -3 4 -6 7 -8 9 18 0
-1 -3 4 -6 7 -8 -9 -18 0
-1 -2 -3 4 -6 -7 9 -18 0
-2 -3 4 5 -7 8 9 19 0
-1 -2 -3 4 -6 -7 -9 18 0
-1 -2 -3 4 -6 -7 8 17 0
-3 4 5 -7 -8 -9 19 0
-1 -2 -3 4 -6 -7 -8 -17 0
-1 -2 -3 4 -6 -15 0
-1 -2 -3 5 14 0
-1 -2 -3 -5 6 8 -17 0
-1 -2 -3 -5 6 -8 17 0
-1 -2 -3 4 -5 7 16 0
-2 -3 4 -5 6 -7 8 -19 0
-1 -2 -3 4 -7 -8 9 -18 0
-1 -2 -3 4 -5 -8 9 19 0
-1 -2 -3 4 -7 -8 -9 18 0
-1 -2 -3 4 -5 -7 -16 0
-1 -3 4 -5 -6 7 9 18 0
-1 -3 4 -5 -6 7 -9 -18 0
-1 -2 -3 4 -5 -6 8 17 0
-1 -2 -3 4 -5 -6 -8 -17 0
-1 -2 -3 4 -5 -6 8 9 -19 0
-1 -2 -3 -5 -14 0
-1 -2 -3 4 13 0
-1 -2 -3 -4 5 6 7 9 18 0
-1 -2 -3 -4 5 6 7 -9 -18 0
-1 -2 -3 -4 5 7 8 17 0
-1 -2 -3 -4 5 7 -8 -17 0
-1 -2 -3 -4 5 6 7 -8 19 0
-1 -2 -3 5 6 7 -16 0
-1 -2 -3 -4 6 -7 8 9 -18 0
-1 -2 -3 -4 6 -7 8 -9 18 0
-1 -2 -3 -4 5 6 -8 9 18 0
-1 -2 -3 -4 5 6 -8 -9 -18 0
-1 -2 -3 5 6 -7 16 0
-2 -3 -4 5 -6 -8 -9 -19 0
-2 -3 -4 5 -6 7 16 0
-2 -3 -4 5 -6 -7 -16 0
-2 -3 -4 -5 7 -8 9 -18 0
-2 -3 -4 -5 7 -8 -9 18 0
-1 -2 -3 -5 6 7 16 0
-1 -2 -3 -4 -5 6 -7 9 19 0
-3 -4 -5 -7 8 -9 -19 0
-1 -2 -4 6 -7 -8 9 18 0
-1 -2 -4 6 -7 -8 -9 -18 0
-1 -2 -3 -5 6 -7 -16 0
-2 -4 -5 -6 7 -16 0
-1 -2 -3 -4 -5 -7 8 -17 0
-3 -4 -5 -6 -7 8 -19 0
-1 -2 -3 -5 -7 -8 9 19 0
-1 -2 -3 -4 -5 -7 -8 17 0
-2 -4 -5 -6 -7 16 0
-1 -2 -3 -4 -13 0
-1 -2 -11 0
-1 10 0
